problems/csplib-prob010/SocialGolfersProblem-models/noch/O2/lingeling/model_1-ord02-5-3-2-solution000001.eprime-solution
language ESSENCE' 1.0

letting sched_ExplicitR17R3R2_PartitionAsSet_ExplicitR2_Occurrence be
        [[[false, false, false, false, true, true; int(1..6)], [false, true, false, true, false, false; int(1..6)],
          [true, false, true, false, false, false; int(1..6)]; int(1..3)],
         [[false, false, false, true, false, true; int(1..6)], [false, true, true, false, false, false; int(1..6)],
          [true, false, false, false, true, false; int(1..6)]; int(1..3)],
         [[false, false, false, true, true, false; int(1..6)], [false, false, true, false, false, true; int(1..6)],
          [true, true, false, false, false, false; int(1..6)]; int(1..3)],
         [[false, false, true, false, true, false; int(1..6)], [false, true, false, false, false, true; int(1..6)],
          [true, false, false, true, false, false; int(1..6)]; int(1..3)],
         [[false, false, true, true, false, false; int(1..6)], [false, true, false, false, true, false; int(1..6)],
          [true, false, false, false, false, true; int(1..6)]; int(1..3)]; int(1..5)]
